decision_x1=[0,2];
decision_x2=[0,2];
decision_x3=[0,2];
decision_x4=[0,2];
decision_x5=[0,2];
decision_x6=[0,2];
decision_x7=[0,2];
decision_x8=[0,2];
decision_x9=[0,2];
decision_x10=[0,2];
random_y1=[0,2];
random_y2=[0,2];
constraint_x3_x1=[
0,1,4.7|
0,2,3.8|
1,0,5.2|
1,2,5.8|
2,0,8.6|
2,1,5.5|
];
constraint_x4_x2=[
0,1,7.7|
0,2,9|
1,0,4.6|
1,2,7.9|
2,0,7.8|
2,1,1.5|
];
constraint_x4_x3=[
0,1,5.9|
0,2,4.7|
1,0,3.3|
1,2,3.4|
2,0,6.4|
2,1,3.1|
];
constraint_x5_x2=[
0,1,6.8|
0,2,0.1|
1,0,1.9|
1,2,9.9|
2,0,0.078|
2,1,1.1|
];
constraint_x5_x4=[
0,1,7.5|
0,2,8.4|
1,0,3.3|
1,2,1.9|
2,0,8.4|
2,1,8.3|
];
constraint_x6_x3=[
0,1,8.2|
0,2,1.1|
1,0,6.1|
1,2,8.4|
2,0,7.2|
2,1,7.2|
];
constraint_x6_x4=[
0,1,3|
0,2,0.67|
1,0,7.2|
1,2,3.6|
2,0,1.5|
2,1,8.3|
];
constraint_x7_x2=[
0,1,1.1|
0,2,7.8|
1,0,2.6|
1,2,3.3|
2,0,1.3|
2,1,1.3|
];
constraint_x7_x5=[
0,1,9.8|
0,2,1.4|
1,0,1.4|
1,2,0.28|
2,0,6.8|
2,1,9.7|
];
constraint_x7_x6=[
0,1,5.3|
0,2,2|
1,0,0.03|
1,2,5.2|
2,0,0.13|
2,1,0.74|
];
constraint_x8_x1=[
0,1,9|
0,2,1.4|
1,0,2.4|
1,2,1.7|
2,0,8.8|
2,1,0.38|
];
constraint_x8_x2=[
0,1,4.5|
0,2,6.4|
1,0,2.6|
1,2,3.1|
2,0,7.7|
2,1,3.9|
];
constraint_x8_x4=[
0,1,1.9|
0,2,4.5|
1,0,6.4|
1,2,2.3|
2,0,8.8|
2,1,8.4|
];
constraint_x9_x2=[
0,1,0.73|
0,2,5.7|
1,0,7.6|
1,2,3.8|
2,0,6.8|
2,1,4.1|
];
constraint_x9_x4=[
0,1,9.1|
0,2,2.1|
1,0,2.7|
1,2,0.98|
2,0,0.81|
2,1,0.77|
];
constraint_x9_x5=[
0,1,4.4|
0,2,1.3|
1,0,8.9|
1,2,5.9|
2,0,7.7|
2,1,3.5|
];
constraint_x9_x8=[
0,1,3.4|
0,2,6.8|
1,0,0.81|
1,2,3.3|
2,0,5.1|
2,1,2.2|
];
constraint_x10_x2=[
0,1,9.8|
0,2,9|
1,0,8|
1,2,0.39|
2,0,5.8|
2,1,8.6|
];
constraint_x10_x3=[
0,1,0.4|
0,2,7|
1,0,1.9|
1,2,5.7|
2,0,2.6|
2,1,0.17|
];
constraint_x10_x4=[
0,1,7.5|
0,2,8.1|
1,0,9.9|
1,2,4.1|
2,0,8.2|
2,1,5.2|
];
constraint_x10_x5=[
0,1,1.3|
0,2,4.7|
1,0,5.3|
1,2,5.8|
2,0,5.5|
2,1,4.2|
];
constraint_x10_x6=[
0,1,2.1|
0,2,0.27|
1,0,0.71|
1,2,9.4|
2,0,7.8|
2,1,7.6|
];
constraint_x10_x7=[
0,1,1.5|
0,2,0.99|
1,0,2.6|
1,2,6|
2,0,8.1|
2,1,6.1|
];
constraint_x1_y1=[
0,0,1.6|
0,1,9.2|
0,2,5.5|
1,0,7.5|
1,1,0.78|
1,2,0.33|
2,0,1.3|
2,1,6.3|
2,2,7.8|
];
constraint_x2_y2=[
0,0,9.7|
0,1,7.2|
0,2,1.1|
1,0,4.1|
1,1,0.99|
1,2,0.65|
2,0,6.5|
2,1,9.8|
2,2,1.8|
];
initial_distribution_y1=[0.52,0.31,0.17];
initial_distribution_y2=[0.22,0.16,0.61];
transition_y1=[
0.38,0.22,0.4|
0.17,0.49,0.35|
0.24,0.3,0.45|
];
transition_y2=[
0.16,0.82,0.02|
0.64,0.24,0.11|
0.56,0.027,0.42|
];
